proyfinal/src/viki/013/andrea/andrea-localstore/experimentInOfficeAgust.take6/worker_4/8bdf0fcd-99e8-49a2-b5e1-7edaa9533cfc.als.cnf.out
Reading from standard input... Use '--help' for help.
============================[ Problem Statistics ]=============================
|                                                                             |
|  Number of variables:         87638                                         |
|  Number of clauses:          161767                                         |
|  Parse time:                   0.04 s                                       |
|                                                                             |
============================[ Search Statistics ]==============================
| Conflicts |          ORIGINAL         |          LEARNT          | Progress |
|           |    Vars  Clauses Literals |    Limit  Clauses Lit/Cl |          |
===============================================================================
|       100 |   62805   106672   266541 |    39113      100      8 | 28.336 % |
|       250 |   62805   106672   266541 |    43024      250     39 | 28.336 % |
|       475 |   62805   106672   266541 |    47326      475     78 | 28.336 % |
|       812 |   62805   106672   266541 |    52059      812     70 | 28.336 % |
|      1318 |   62805   106672   266541 |    57265     1318     79 | 28.336 % |
|      2077 |   62805   106672   266541 |    62991     2077     70 | 28.336 % |
|      3216 |   62805   106672   266541 |    69291     3216     74 | 28.336 % |
|      4924 |   62767   106520   266183 |    76220     4922     87 | 28.379 % |
|      7486 |   62719   106332   265736 |    83842     7481     83 | 28.434 % |
|     11330 |   62693   106184   265396 |    92226    11319     96 | 28.464 % |
|     17096 |   51024    71176   178925 |   101449    16741     98 | 41.779 % |
===============================================================================
restarts              : 63
conflicts             : 17316          (6583 /sec)
decisions             : 53634          (0.00 % random) (20391 /sec)
propagations          : 22384014       (8510022 /sec)
conflict literals     : 1664503        (53.25 % deleted)
Memory used           : 39.29 MB
CPU time              : 2.63031 s

UNSATISFIABLE
